proyfinal/src/viki/013/experimentInOfficeAgust.take6.output/ea8d20e2-9e06-4aec-8c07-4930ad86cd45.als.dat
{'cnf.clauses': '118081',
 'cnf.totvars': '69608',
 'conflict literals': '1',
 'conflicts': '2',
 'decisions': '212',
 'memused.mb': '16.00',
 'outcome': 'UNSAT',
 'propagations': '18771',
 'restarts': '1',
 'solver.msecs': 28,
 'task.msecs': 82}
