proyfinal/src/viki/013/experimentInOfficeAgust.take6.output/ea8d20e2-9e06-4aec-8c07-4930ad86cd45.als.out
Reading from standard input... Use '--help' for help.
============================[ Problem Statistics ]=============================
|                                                                             |
|  Number of variables:         69608                                         |
|  Number of clauses:          118081                                         |
|  Parse time:                   0.02 s                                       |
|                                                                             |
============================[ Search Statistics ]==============================
| Conflicts |          ORIGINAL         |          LEARNT          | Progress |
|           |    Vars  Clauses Literals |    Limit  Clauses Lit/Cl |          |
===============================================================================
===============================================================================
restarts              : 1
conflicts             : 2              (69 /sec)
decisions             : 212            (0.00 % random) (7365 /sec)
propagations          : 18771          (652156 /sec)
conflict literals     : 1              (0.00 % deleted)
Memory used           : 16.00 MB
CPU time              : 0.028783 s

UNSATISFIABLE
